p cnf 70 186
-62 63 67 0
-24 -19 -50 0
-39 40 44 0
3 -4 26 0
33 34 -41 0
-37 -38 -43 0
45 46 -47 0
6 -14 53 0
-7 13 57 0
-64 -65 -68 0
62 63 -67 0
-5 6 27 0
-15 21 55 0
-3 -4 -26 0
-31 -32 -40 0
-22 8 56 0
-62 -63 -67 0
48 -49 60 0
-19 -20 -34 0
15 -21 55 0
-3 11 59 0
-21 22 35 0
1 2 -25 0
-10 16 54 0
39 -40 44 0
13 14 -31 0
2 12 -48 0
-35 -36 -42 0
-39 -40 -44 0
29 30 -39 0
-1 2 25 0
17 -18 33 0
43 -44 46 0
-60 -61 -66 0
-3 -11 -59 0
19 20 -34 0
64 65 -68 0
66 67 -69 0
-17 18 58 0
-9 -23 -52 0
33 -34 41 0
56 -57 64 0
-20 -4 -49 0
9 -10 29 0
9 10 -29 0
-43 44 46 0
-47 -70 0
5 -6 27 0
-43 -44 -46 0
-37 38 43 0
9 23 -52 0
-1 5 51 0
1 -5 51 0
58 -59 65 0
-9 -10 -29 0
23 -24 36 0
10 -16 54 0
31 32 -40 0
7 -8 28 0
7 13 -57 0
29 -30 39 0
-7 -13 -57 0
15 -16 32 0
-21 -22 -35 0
-31 32 40 0
-7 8 28 0
15 16 -32 0
58 59 -65 0
-41 -42 -45 0
-1 -2 -25 0
62 -63 67 0
-41 42 45 0
-29 30 39 0
48 49 -60 0
-15 16 32 0
17 18 -33 0
5 6 -27 0
-19 20 34 0
41 -42 45 0
2 -12 48 0
60 61 -66 0
-58 59 65 0
3 11 -59 0
-27 -28 -38 0
23 24 -36 0
7 8 -28 0
-64 65 68 0
10 16 -54 0
52 53 -62 0
-29 -30 -39 0
35 -36 42 0
-13 14 31 0
21 22 -35 0
-5 -6 -27 0
15 21 -55 0
24 19 -50 0
-66 67 69 0
52 -53 62 0
-52 -53 -62 0
27 -28 38 0
39 40 -44 0
-60 61 66 0
19 -20 34 0
9 -23 52 0
-6 14 53 0
37 -38 43 0
68 -69 70 0
45 -46 47 0
-54 55 63 0
-45 -46 -47 0
1 -2 25 0
54 55 -63 0
17 18 -58 0
-68 69 70 0
50 -51 61 0
-24 19 50 0
31 -32 40 0
-3 4 26 0
-7 -8 -28 0
-50 51 61 0
25 26 -37 0
47 70 0
1 5 -51 0
64 -65 68 0
-56 57 64 0
-15 -16 -32 0
-17 18 33 0
22 -8 56 0
11 12 -30 0
6 14 -53 0
-11 12 30 0
50 51 -61 0
-48 -49 -60 0
-54 -55 -63 0
-9 10 29 0
13 -14 31 0
-2 12 48 0
21 -22 35 0
-33 -34 -41 0
-17 -18 -33 0
-2 -12 -48 0
43 44 -46 0
11 -12 30 0
-11 -12 -30 0
-20 4 49 0
-25 26 37 0
-58 -59 -65 0
20 -4 49 0
-17 -18 -58 0
-15 -21 -55 0
-50 -51 -61 0
-23 24 36 0
27 28 -38 0
22 8 -56 0
-10 -16 -54 0
-25 -26 -37 0
54 -55 63 0
66 -67 69 0
20 4 -49 0
-27 28 38 0
3 -11 59 0
7 -13 57 0
3 4 -26 0
37 38 -43 0
-22 -8 -56 0
56 57 -64 0
60 -61 66 0
25 -26 37 0
-23 -24 -36 0
68 69 -70 0
-52 53 62 0
35 36 -42 0
-1 -5 -51 0
-6 -14 -53 0
-45 46 47 0
-35 36 42 0
-66 -67 -69 0
-48 49 60 0
-56 -57 -64 0
-13 -14 -31 0
41 42 -45 0
-68 -69 -70 0
24 -19 50 0
-33 34 41 0
-9 23 52 0
17 -18 58 0
